15 3 
3766	3766	3766	
600	195	237	
277	568	1086	
3	624	1176	
462	43	81	
579	880	1489	
580	981	1703	
411	37	46	
296	94	183	
510	821	967	
989	763	1070	
432	570	737	
432	938	995	
552	312	423	
141	265	281	
616	441	447	
